c turning on binary mode checking
c parsing input formula with 202048 variables and 780985 clauses
c finished parsing, read 2625725 bytes from proof file
c detected empty clause; start verification via backward checking
c 6907 of 780985 clauses in core                            
c 2235 of 106557 lemmas in core using 62959 resolution steps
c 0 RAT lemmas in core; 433 redundant literals in core lemmas
s VERIFIED
c verification time: 1.138 seconds
